local_stuff/sygus_stuff/sygus_inv_oai/sygus_cvc5/cvc_output_2_5min/128.c.out
STDOUT:
(
(define-fun inv-f ((x Int) (y Int) (x_0 Int) (x_1 Int) (x_2 Int) (x_3 Int) (y_0 Int)) Bool (or (not (= x x_2)) (not (= y y_0)) (not (>= (+ x_2 (* (- 1) y_0)) 0)) (>= x_2 1)))
)
